1
1000
249
499 1
497 1
497 1
497 1
494 1
492 1
491 1
491 1
489 1
488 1
487 1
480 1
469 1
468 1
466 1
464 1
464 1
461 1
460 1
459 1
457 1
452 1
452 1
451 1
451 1
449 1
446 1
444 1
443 1
441 1
440 1
438 1
437 1
437 1
434 1
432 1
431 1
431 1
428 1
428 1
426 1
425 1
425 1
425 1
424 1
422 1
422 1
416 1
415 1
415 1
410 1
409 1
407 1
407 1
404 1
401 1
400 1
398 1
397 1
393 1
392 1
391 1
387 1
385 1
385 1
385 1
383 1
382 1
382 1
382 1
382 1
381 1
381 1
380 1
379 1
377 1
376 1
372 1
372 1
370 1
369 1
368 1
368 1
365 1
364 1
363 1
361 1
361 1
360 1
360 1
359 1
358 1
354 1
353 1
344 1
343 1
340 1
336 1
335 1
334 1
334 1
333 1
332 1
332 1
331 1
331 1
329 1
329 1
328 1
325 1
325 1
323 1
323 1
322 1
321 1
321 1
319 1
317 1
316 1
314 1
312 1
311 1
311 1
310 1
309 1
309 1
309 1
308 1
306 1
305 1
303 1
303 1
302 1
301 1
301 1
299 1
298 1
297 1
296 1
295 1
293 1
293 1
293 1
292 1
291 1
291 1
291 1
289 1
289 1
288 1
288 1
284 1
284 1
284 1
283 1
283 1
283 1
282 1
282 1
281 1
281 1
280 1
279 1
279 1
279 1
279 1
278 1
278 1
277 1
277 1
277 1
276 1
276 1
276 1
273 1
273 1
272 1
271 1
271 1
271 1
270 1
270 1
269 1
269 1
269 1
269 1
267 1
267 1
267 1
267 1
265 1
264 1
263 1
263 1
263 1
262 1
261 1
260 1
260 1
260 1
260 1
259 1
259 1
258 1
258 1
258 1
258 1
258 1
258 1
257 1
257 1
257 1
257 1
256 1
255 1
255 1
255 1
255 1
255 1
254 1
254 1
254 1
254 1
254 1
254 1
254 1
253 1
253 1
253 1
253 1
253 1
253 1
252 1
252 1
252 1
252 1
251 1
251 1
251 1
251 1
250 1
250 1
250 1
250 1
250 1
250 1
250 1
250 1
250 1
